n_res = 3;
rc = [ 4, 3, 6 ];
n_tasks = 25;
d = [ 1, 4, 3, 2, 3, 5, 5, 4, 1, 1, 5, 5, 5, 3, 1, 5, 2, 4, 3, 3, 5, 5, 1, 3, 4 ];
rr = [| 2, 2, 2, 1, 0, 2, 1, 0, 2, 0, 1, 2, 0, 1, 1, 1, 2, 0, 2, 0, 2, 1, 1, 2, 0
      | 0, 1, 1, 1, 0, 0, 1, 1, 1, 0, 0, 0, 0, 1, 1, 0, 1, 1, 0, 1, 1, 1, 1, 0, 1
      | 2, 0, 2, 0, 2, 1, 3, 0, 2, 0, 1, 2, 2, 2, 2, 3, 3, 3, 3, 1, 2, 3, 0, 1, 1 |];
suc = [ { 18 },
       { 9, 16, 23 },
       { 18, 20, 22 },
       { 10 },
       { 9, 10, 20, 21 },
       { 17 },
       { 19, 21, 23 },
       { 12, 13, 18, 25 },
       { 10, 16 },
       { 15, 18 },
       { 18, 25 },
       { 14, 18 },
       { 16 },
       {  },
       { 19, 23 },
       { 19, 21, 25 },
       { 21 },
       { 21 },
       { 23 },
       { 22, 23 },
       { 23, 25 },
       {  },
       {  },
       {  },
       {  } ];
